g3 1 1 0	# problem example01
 12 12 0 0 12 	# vars, constraints, objectives, ranges, eqns
 1 0 0 0 0 0	# nonlinear constrs, objs; ccons: lin, nonlin, nd, nzlb
 0 0	# network constraints: nonlinear, linear
 1 0 0 	# nonlinear vars in constraints, objectives, both
 0 0 0 1	# linear network variables; functions; arith, flags
 0 0 0 0 0 	# discrete variables: binary, integer, nonlinear (b,c,o)
 30 0 	# nonzeros in Jacobian, obj. gradient
 0 0	# max name lengths: constraints, variables
 0 0 0 0 0	# common exprs: b,c,o,c1,o1
C0
o2
n-1
o2
o2
n0.42
o5
v0
n2
o5
n0.00123
n0.5
C1
n0
C2
n0
C3
n0
C4
n0
C5
n0
C6
n0
C7
n0
C8
n0
C9
n0
C10
n0
C11
n0
x12
0 0.35999964
1 -0.05097681765216577
2 -0.013729322308134246
3 0.025487429806082887
4 3.916080000000001e-06
5 0.00190900022272292
6 0.025487429806082887
7 0.0
8 0.0
9 1.9580400000000004e-06
10 0.00190900022272292
11 -2.9149253731343243e-05
r
4 0.0
4 0.0
4 0.0
4 0.0
4 0.0
4 0.0
4 -0.35999964
4 0.025487429806082887
4 0.0
4 0.0
4 1.9580400000000004e-06
4 -2.9149253731343243e-05
b
3
3
3
3
3
3
3
3
3
3
3
3
k11
2
3
4
5
6
7
11
16
21
25
28
J0 2
10 1
0 0
J1 5
1 1
6 2.0
7 -1
8 1
9 1
J2 5
2 1
6 0.5
9 1
10 0.5
11 -1
J3 4
3 1
6 -1
7 1
8 -1
J4 4
4 1
7 1
8 -1
9 -2.0
J5 4
5 1
7 -1
8 1
10 -1
J6 1
0 -1
J7 1
6 1
J8 1
7 1
J9 1
8 1
J10 1
9 1
J11 1
11 1
